3 5
93 94 80 
0 1 8 19 27 51 45 6 77 91 26 64 9 3
1 103 93 29 35 76 70 17 47 28 92 82 48 1
2 34 39 9 9 73 80 69 64 5 13 24 98 1
3 52 48 101 94 47 49 9 16 58 7 3 79 2
4 23 13 48 55 15 6 85 69 37 100 32 59 2
